TCS_Benchmarks/redos_fix/corpus3_output_distinct_2803_2802_54_0.txt
([\w -:]*)([ \/:\w,\(\)]+)
([\w -:]*)(\w+[ \n\r]+- )([ \/:\w,\(\)]+)